100 8
287 397
252 266
710 522
433 536
608 441
498 466
396 894
441 586
458 543
595 117
148 452
533 483
151 245
302 490
219 343
621 658
455 723
219 348
227 339
314 844
512 273
164 695
188 295
228 535
546 79
152 239
483 580
158 525
460 691
348 946
348 374
285 116
234 219
314 975
373 721
832 463
223 322
334 649
778 485
880 453
243 186
555 13
289 282
170 540
214 265
236 697
246 259
736 353
189 739
625 291
599 696
711 578
254 441
601 346
596 543
770 471
271 595
323 246
249 420
586 335
767 378
529 467
458 729
769 447
489 758
458 466
267 281
564 737
185 268
678 356
233 266
248 407
437 658
774 366
735 532
509 734
250 426
432 480
629 339
565 458
208 352
530 377
292 707
364 325
519 808
276 811
443 563
323 176
413 827
522 500
239 749
291 126
352 615
417 499
693 315
251 254
576 312
357 321
310 105
351 914
